507.42,74.2,84.75
546.78,68.86,78.65
554.74,67.87,77.52
545.37,69.04,78.85
516.52,72.89,83.25
521.27,72.23,82.49
591.69,63.63,72.68
539.87,69.74,79.65
528.91,71.19,81.3
525.97,71.59,81.76
536.07,70.24,80.22
581.01,64.8,74.01
569.64,66.1,75.49
566.02,66.52,75.97
590.06,63.81,72.88
580.72,64.84,74.05
544.98,69.09,78.91
560.54,67.17,76.71
565.34,66.6,76.06
543.12,69.32,79.18
